
Gurobi 11.0.3 (linux64) logging started Thu Nov 21 23:14:35 2024

Set parameter LogFile to value "/home/yihong/Coding/OR_SUC/SUC_results_bigM100000_thread4/case24_ieee_rts_theta0.5_epsilon0.05_gurobi_seed770000_num_gen100_N_WDR100_load_scaling_factor1_exact_T16quadra_cost.txt"
Set parameter TimeLimit to value 3600
Gurobi Optimizer version 11.0.3 build v11.0.3rc0 (linux64 - "Ubuntu 20.04.6 LTS")

CPU model: AMD EPYC 7532 32-Core Processor, instruction set [SSE2|AVX|AVX2]
Thread count: 64 physical cores, 128 logical processors, using up to 4 threads

Optimize a model with 38307 rows, 20041 columns and 883306 nonzeros
Model fingerprint: 0x926c9477
Model has 1600 quadratic constraints
Variable types: 18341 continuous, 1700 integer (1700 binary)
Coefficient statistics:
  Matrix range     [3e-04, 1e+05]
  QMatrix range    [2e-03, 8e-03]
  QLMatrix range   [2e-01, 6e+01]
  Objective range  [1e+00, 1e+00]
  Bounds range     [1e+00, 1e+00]
  RHS range        [1e+00, 1e+05]
Presolve removed 31403 rows and 8580 columns
Presolve time: 0.26s
Presolved: 6904 rows, 11461 columns, 38348 nonzeros
Presolved model has 1600 quadratic constraint(s)
Variable types: 9780 continuous, 1681 integer (1681 binary)

Root relaxation: objective 3.226599e+04, 5900 iterations, 0.15 seconds (0.22 work units)

    Nodes    |    Current Node    |     Objective Bounds      |     Work
 Expl Unexpl |  Obj  Depth IntInf | Incumbent    BestBd   Gap | It/Node Time

     0     0 32265.9895    0   12          - 32265.9895      -     -    0s
     0     0 213604.945    0  478          - 213604.945      -     -    0s
     0     0 214538.388    0  493          - 214538.388      -     -    0s
     0     0 379437.584    0  499          - 379437.584      -     -    1s
     0     0 379452.231    0  327          - 379452.231      -     -    1s
     0     0 379673.649    0  235          - 379673.649      -     -    1s
     0     0 379681.104    0  235          - 379681.104      -     -    1s
     0     0 379681.104    0  235          - 379681.104      -     -    1s
     0     2 379681.104    0  235          - 379681.104      -     -    2s
H  527   492                    380255.25874 379687.333  0.15%  17.4    3s
*  527   492             162    380255.25874 379687.333  0.15%  17.4    3s
   750   615 380135.322   60  235 380255.259 379689.569  0.15%  19.3    6s
   772   630 379723.246    6  265 380255.259 379698.890  0.15%  18.7   10s
  1602   961 379880.684  101    4 380255.259 379712.189  0.14%  30.6   15s
  3335  2172 379848.400   91    - 380255.259 379725.094  0.14%  30.2   20s
H 5231  3378                    380120.51368 379735.377  0.10%  26.7   23s
* 5231  3378              85    380120.51368 379735.377  0.10%  26.7   23s

Cutting planes:
  Gomory: 5
  Implied bound: 20
  Projected implied bound: 1
  MIR: 55
  Flow cover: 20
  Relax-and-lift: 1

Explored 6332 nodes (185568 simplex iterations) in 24.73 seconds (23.24 work units)
Thread count was 4 (of 128 available processors)

Solution count 3: 380121 380121 380255 

Optimal solution found (tolerance 1.00e-03)
Warning: max constraint violation (5.0230e-05) exceeds tolerance
Best objective 3.801205134601e+05, best bound 3.797412533710e+05, gap 0.0998%
